-93.0 4.0 6.0 2.0 1.0 3.0 2.0 0.0 5.0 7.0 4.0 4.0 5.0 10.0 1.0 9.0 3.0 5.0 10.0 1.0 2.0 9.0 
4.0 -75.0 1.0 4.0 4.0 2.0 1.0 4.0 3.0 4.0 5.0 2.0 9.0 1.0 7.0 3.0 5.0 4.0 6.0 6.0 0.0 0.0 
6.0 1.0 -118.0 6.0 9.0 2.0 6.0 2.0 2.0 8.0 10.0 6.0 10.0 10.0 7.0 0.0 5.0 0.0 10.0 4.0 9.0 5.0 
2.0 4.0 6.0 -101.0 0.0 4.0 6.0 5.0 8.0 10.0 7.0 10.0 4.0 4.0 4.0 2.0 9.0 2.0 0.0 0.0 8.0 6.0 
1.0 4.0 9.0 0.0 -112.0 8.0 8.0 5.0 7.0 6.0 10.0 2.0 9.0 10.0 4.0 2.0 7.0 1.0 7.0 5.0 3.0 4.0 
3.0 2.0 2.0 4.0 8.0 -67.0 5.0 7.0 2.0 1.0 5.0 4.0 2.0 3.0 5.0 3.0 0.0 5.0 0.0 3.0 3.0 0.0 
2.0 1.0 6.0 6.0 8.0 5.0 -90.0 7.0 0.0 1.0 5.0 7.0 3.0 1.0 4.0 7.0 5.0 4.0 7.0 0.0 3.0 8.0 
0.0 4.0 2.0 5.0 5.0 7.0 7.0 -90.0 5.0 8.0 8.0 5.0 1.0 3.0 10.0 3.0 0.0 3.0 5.0 2.0 4.0 3.0 
5.0 3.0 2.0 8.0 7.0 2.0 0.0 5.0 -96.0 8.0 0.0 3.0 10.0 9.0 6.0 1.0 4.0 7.0 2.0 7.0 5.0 2.0 
7.0 4.0 8.0 10.0 6.0 1.0 1.0 8.0 8.0 -98.0 1.0 3.0 2.0 5.0 3.0 10.0 1.0 3.0 0.0 6.0 5.0 6.0 
4.0 5.0 10.0 7.0 10.0 5.0 5.0 8.0 0.0 1.0 -99.0 3.0 7.0 7.0 2.0 0.0 1.0 7.0 2.0 2.0 9.0 4.0 
4.0 2.0 6.0 10.0 2.0 4.0 7.0 5.0 3.0 3.0 3.0 -96.0 5.0 6.0 0.0 7.0 10.0 5.0 0.0 5.0 6.0 3.0 
5.0 9.0 10.0 4.0 9.0 2.0 3.0 1.0 10.0 2.0 7.0 5.0 -122.0 6.0 5.0 10.0 2.0 10.0 5.0 9.0 7.0 1.0 
10.0 1.0 10.0 4.0 10.0 3.0 1.0 3.0 9.0 5.0 7.0 6.0 6.0 -123.0 10.0 4.0 8.0 4.0 10.0 0.0 6.0 6.0 
1.0 7.0 7.0 4.0 4.0 5.0 4.0 10.0 6.0 3.0 2.0 0.0 5.0 10.0 -104.0 7.0 1.0 1.0 8.0 3.0 10.0 6.0 
9.0 3.0 0.0 2.0 2.0 3.0 7.0 3.0 1.0 10.0 0.0 7.0 10.0 4.0 7.0 -99.0 6.0 6.0 4.0 9.0 4.0 2.0 
3.0 5.0 5.0 9.0 7.0 0.0 5.0 0.0 4.0 1.0 1.0 10.0 2.0 8.0 1.0 6.0 -87.0 1.0 10.0 4.0 2.0 3.0 
5.0 4.0 0.0 2.0 1.0 5.0 4.0 3.0 7.0 3.0 7.0 5.0 10.0 4.0 1.0 6.0 1.0 -83.0 7.0 0.0 8.0 0.0 
10.0 6.0 10.0 0.0 7.0 0.0 7.0 5.0 2.0 0.0 2.0 0.0 5.0 10.0 8.0 4.0 10.0 7.0 -110.0 4.0 4.0 9.0 
1.0 6.0 4.0 0.0 5.0 3.0 0.0 2.0 7.0 6.0 2.0 5.0 9.0 0.0 3.0 9.0 4.0 0.0 4.0 -77.0 6.0 1.0 
2.0 0.0 9.0 8.0 3.0 3.0 3.0 4.0 5.0 5.0 9.0 6.0 7.0 6.0 10.0 4.0 2.0 8.0 4.0 6.0 -109.0 5.0 
9.0 0.0 5.0 6.0 4.0 0.0 8.0 3.0 2.0 6.0 4.0 3.0 1.0 6.0 6.0 2.0 3.0 0.0 9.0 1.0 5.0 -83.0 

